logs/drand/ip/drand-05-075-2.lp
\ LP format - for model browsing. Use MPS format to capture full model detail.
Minimize
  z0 + z1 + z2 + z3 + z4 + z5
Subject To
 R0: x0,1_29 + x0,1_40 + x0,1_52 + x0,1_61 + x0,1_69 - z1 <= 0
 R1: x0,2_29 + x0,2_40 + x0,2_52 + x0,2_61 + x0,2_69 - z2 <= 0
 R2: x0,3_29 + x0,3_40 + x0,3_52 + x0,3_61 + x0,3_69 - z3 <= 0
 R3: x0,4_29 + x0,4_40 + x0,4_52 + x0,4_61 + x0,4_69 - z4 <= 0
 R4: x0,5_29 + x0,5_40 + x0,5_52 + x0,5_61 + x0,5_69 - z5 <= 0
 R5: x1,2_29 + x1,2_40 + x1,2_52 + x1,2_61 + x1,2_69 - z2 <= 0
 R6: x1,3_29 + x1,3_40 + x1,3_52 + x1,3_61 + x1,3_69 - z3 <= 0
 R7: x1,4_29 + x1,4_40 + x1,4_52 + x1,4_61 + x1,4_69 - z4 <= 0
 R8: x1,5_29 + x1,5_40 + x1,5_52 + x1,5_61 + x1,5_69 - z5 <= 0
 R9: x2,3_29 + x2,3_40 + x2,3_52 + x2,3_61 + x2,3_69 - z3 <= 0
 R10: x2,4_29 + x2,4_40 + x2,4_52 + x2,4_61 + x2,4_69 - z4 <= 0
 R11: x2,5_29 + x2,5_40 + x2,5_52 + x2,5_61 + x2,5_69 - z5 <= 0
 R12: x3,4_29 + x3,4_40 + x3,4_52 + x3,4_61 + x3,4_69 - z4 <= 0
 R13: x3,5_29 + x3,5_40 + x3,5_52 + x3,5_61 + x3,5_69 - z5 <= 0
 R14: x4,5_29 + x4,5_40 + x4,5_52 + x4,5_61 + x4,5_69 - z5 <= 0
 R15: x0,1_29 + x0,2_29 + x0,3_29 + x0,4_29 + x0,5_29 + x1,2_29 + x1,3_29
   + x1,4_29 + x1,5_29 + x2,3_29 + x2,4_29 + x2,5_29 + x3,4_29 + x3,5_29
   + x4,5_29 = 1
 R16: x0,1_40 + x0,2_40 + x0,3_40 + x0,4_40 + x0,5_40 + x1,2_40 + x1,3_40
   + x1,4_40 + x1,5_40 + x2,3_40 + x2,4_40 + x2,5_40 + x3,4_40 + x3,5_40
   + x4,5_40 = 1
 R17: x0,1_52 + x0,2_52 + x0,3_52 + x0,4_52 + x0,5_52 + x1,2_52 + x1,3_52
   + x1,4_52 + x1,5_52 + x2,3_52 + x2,4_52 + x2,5_52 + x3,4_52 + x3,5_52
   + x4,5_52 = 1
 R18: x0,1_61 + x0,2_61 + x0,3_61 + x0,4_61 + x0,5_61 + x1,2_61 + x1,3_61
   + x1,4_61 + x1,5_61 + x2,3_61 + x2,4_61 + x2,5_61 + x3,4_61 + x3,5_61
   + x4,5_61 = 1
 R19: x0,1_69 + x0,2_69 + x0,3_69 + x0,4_69 + x0,5_69 + x1,2_69 + x1,3_69
   + x1,4_69 + x1,5_69 + x2,3_69 + x2,4_69 + x2,5_69 + x3,4_69 + x3,5_69
   + x4,5_69 = 1
 R20: p0 - p1 <= -1
 R21: - 29 x0,1_29 - p0 + p1 >= 0
 R22: 251 x0,1_29 - p0 + p1 <= 280
 R23: - 40 x0,1_40 - p0 + p1 >= 0
 R24: 251 x0,1_40 - p0 + p1 <= 291
 R25: - 52 x0,1_52 - p0 + p1 >= 0
 R26: 251 x0,1_52 - p0 + p1 <= 303
 R27: - 61 x0,1_61 - p0 + p1 >= 0
 R28: 251 x0,1_61 - p0 + p1 <= 312
 R29: - 69 x0,1_69 - p0 + p1 >= 0
 R30: 251 x0,1_69 - p0 + p1 <= 320
 R31: p0 - p2 <= -1
 R32: - 29 x0,2_29 - p0 + p2 >= 0
 R33: 251 x0,2_29 - p0 + p2 <= 280
 R34: - 40 x0,2_40 - p0 + p2 >= 0
 R35: 251 x0,2_40 - p0 + p2 <= 291
 R36: - 52 x0,2_52 - p0 + p2 >= 0
 R37: 251 x0,2_52 - p0 + p2 <= 303
 R38: - 61 x0,2_61 - p0 + p2 >= 0
 R39: 251 x0,2_61 - p0 + p2 <= 312
 R40: - 69 x0,2_69 - p0 + p2 >= 0
 R41: 251 x0,2_69 - p0 + p2 <= 320
 R42: p0 - p3 <= -1
 R43: - 29 x0,3_29 - p0 + p3 >= 0
 R44: 251 x0,3_29 - p0 + p3 <= 280
 R45: - 40 x0,3_40 - p0 + p3 >= 0
 R46: 251 x0,3_40 - p0 + p3 <= 291
 R47: - 52 x0,3_52 - p0 + p3 >= 0
 R48: 251 x0,3_52 - p0 + p3 <= 303
 R49: - 61 x0,3_61 - p0 + p3 >= 0
 R50: 251 x0,3_61 - p0 + p3 <= 312
 R51: - 69 x0,3_69 - p0 + p3 >= 0
 R52: 251 x0,3_69 - p0 + p3 <= 320
 R53: p0 - p4 <= -1
 R54: - 29 x0,4_29 - p0 + p4 >= 0
 R55: 251 x0,4_29 - p0 + p4 <= 280
 R56: - 40 x0,4_40 - p0 + p4 >= 0
 R57: 251 x0,4_40 - p0 + p4 <= 291
 R58: - 52 x0,4_52 - p0 + p4 >= 0
 R59: 251 x0,4_52 - p0 + p4 <= 303
 R60: - 61 x0,4_61 - p0 + p4 >= 0
 R61: 251 x0,4_61 - p0 + p4 <= 312
 R62: - 69 x0,4_69 - p0 + p4 >= 0
 R63: 251 x0,4_69 - p0 + p4 <= 320
 R64: p0 - p5 <= -1
 R65: - 29 x0,5_29 - p0 + p5 >= 0
 R66: 251 x0,5_29 - p0 + p5 <= 280
 R67: - 40 x0,5_40 - p0 + p5 >= 0
 R68: 251 x0,5_40 - p0 + p5 <= 291
 R69: - 52 x0,5_52 - p0 + p5 >= 0
 R70: 251 x0,5_52 - p0 + p5 <= 303
 R71: - 61 x0,5_61 - p0 + p5 >= 0
 R72: 251 x0,5_61 - p0 + p5 <= 312
 R73: - 69 x0,5_69 - p0 + p5 >= 0
 R74: 251 x0,5_69 - p0 + p5 <= 320
 R75: p1 - p2 <= -1
 R76: - 29 x1,2_29 - p1 + p2 >= 0
 R77: 251 x1,2_29 - p1 + p2 <= 280
 R78: - 40 x1,2_40 - p1 + p2 >= 0
 R79: 251 x1,2_40 - p1 + p2 <= 291
 R80: - 52 x1,2_52 - p1 + p2 >= 0
 R81: 251 x1,2_52 - p1 + p2 <= 303
 R82: - 61 x1,2_61 - p1 + p2 >= 0
 R83: 251 x1,2_61 - p1 + p2 <= 312
 R84: - 69 x1,2_69 - p1 + p2 >= 0
 R85: 251 x1,2_69 - p1 + p2 <= 320
 R86: p1 - p3 <= -1
 R87: - 29 x1,3_29 - p1 + p3 >= 0
 R88: 251 x1,3_29 - p1 + p3 <= 280
 R89: - 40 x1,3_40 - p1 + p3 >= 0
 R90: 251 x1,3_40 - p1 + p3 <= 291
 R91: - 52 x1,3_52 - p1 + p3 >= 0
 R92: 251 x1,3_52 - p1 + p3 <= 303
 R93: - 61 x1,3_61 - p1 + p3 >= 0
 R94: 251 x1,3_61 - p1 + p3 <= 312
 R95: - 69 x1,3_69 - p1 + p3 >= 0
 R96: 251 x1,3_69 - p1 + p3 <= 320
 R97: p1 - p4 <= -1
 R98: - 29 x1,4_29 - p1 + p4 >= 0
 R99: 251 x1,4_29 - p1 + p4 <= 280
 R100: - 40 x1,4_40 - p1 + p4 >= 0
 R101: 251 x1,4_40 - p1 + p4 <= 291
 R102: - 52 x1,4_52 - p1 + p4 >= 0
 R103: 251 x1,4_52 - p1 + p4 <= 303
 R104: - 61 x1,4_61 - p1 + p4 >= 0
 R105: 251 x1,4_61 - p1 + p4 <= 312
 R106: - 69 x1,4_69 - p1 + p4 >= 0
 R107: 251 x1,4_69 - p1 + p4 <= 320
 R108: p1 - p5 <= -1
 R109: - 29 x1,5_29 - p1 + p5 >= 0
 R110: 251 x1,5_29 - p1 + p5 <= 280
 R111: - 40 x1,5_40 - p1 + p5 >= 0
 R112: 251 x1,5_40 - p1 + p5 <= 291
 R113: - 52 x1,5_52 - p1 + p5 >= 0
 R114: 251 x1,5_52 - p1 + p5 <= 303
 R115: - 61 x1,5_61 - p1 + p5 >= 0
 R116: 251 x1,5_61 - p1 + p5 <= 312
 R117: - 69 x1,5_69 - p1 + p5 >= 0
 R118: 251 x1,5_69 - p1 + p5 <= 320
 R119: p2 - p3 <= -1
 R120: - 29 x2,3_29 - p2 + p3 >= 0
 R121: 251 x2,3_29 - p2 + p3 <= 280
 R122: - 40 x2,3_40 - p2 + p3 >= 0
 R123: 251 x2,3_40 - p2 + p3 <= 291
 R124: - 52 x2,3_52 - p2 + p3 >= 0
 R125: 251 x2,3_52 - p2 + p3 <= 303
 R126: - 61 x2,3_61 - p2 + p3 >= 0
 R127: 251 x2,3_61 - p2 + p3 <= 312
 R128: - 69 x2,3_69 - p2 + p3 >= 0
 R129: 251 x2,3_69 - p2 + p3 <= 320
 R130: p2 - p4 <= -1
 R131: - 29 x2,4_29 - p2 + p4 >= 0
 R132: 251 x2,4_29 - p2 + p4 <= 280
 R133: - 40 x2,4_40 - p2 + p4 >= 0
 R134: 251 x2,4_40 - p2 + p4 <= 291
 R135: - 52 x2,4_52 - p2 + p4 >= 0
 R136: 251 x2,4_52 - p2 + p4 <= 303
 R137: - 61 x2,4_61 - p2 + p4 >= 0
 R138: 251 x2,4_61 - p2 + p4 <= 312
 R139: - 69 x2,4_69 - p2 + p4 >= 0
 R140: 251 x2,4_69 - p2 + p4 <= 320
 R141: p2 - p5 <= -1
 R142: - 29 x2,5_29 - p2 + p5 >= 0
 R143: 251 x2,5_29 - p2 + p5 <= 280
 R144: - 40 x2,5_40 - p2 + p5 >= 0
 R145: 251 x2,5_40 - p2 + p5 <= 291
 R146: - 52 x2,5_52 - p2 + p5 >= 0
 R147: 251 x2,5_52 - p2 + p5 <= 303
 R148: - 61 x2,5_61 - p2 + p5 >= 0
 R149: 251 x2,5_61 - p2 + p5 <= 312
 R150: - 69 x2,5_69 - p2 + p5 >= 0
 R151: 251 x2,5_69 - p2 + p5 <= 320
 R152: p3 - p4 <= -1
 R153: - 29 x3,4_29 - p3 + p4 >= 0
 R154: 251 x3,4_29 - p3 + p4 <= 280
 R155: - 40 x3,4_40 - p3 + p4 >= 0
 R156: 251 x3,4_40 - p3 + p4 <= 291
 R157: - 52 x3,4_52 - p3 + p4 >= 0
 R158: 251 x3,4_52 - p3 + p4 <= 303
 R159: - 61 x3,4_61 - p3 + p4 >= 0
 R160: 251 x3,4_61 - p3 + p4 <= 312
 R161: - 69 x3,4_69 - p3 + p4 >= 0
 R162: 251 x3,4_69 - p3 + p4 <= 320
 R163: p3 - p5 <= -1
 R164: - 29 x3,5_29 - p3 + p5 >= 0
 R165: 251 x3,5_29 - p3 + p5 <= 280
 R166: - 40 x3,5_40 - p3 + p5 >= 0
 R167: 251 x3,5_40 - p3 + p5 <= 291
 R168: - 52 x3,5_52 - p3 + p5 >= 0
 R169: 251 x3,5_52 - p3 + p5 <= 303
 R170: - 61 x3,5_61 - p3 + p5 >= 0
 R171: 251 x3,5_61 - p3 + p5 <= 312
 R172: - 69 x3,5_69 - p3 + p5 >= 0
 R173: 251 x3,5_69 - p3 + p5 <= 320
 R174: p4 - p5 <= -1
 R175: - 29 x4,5_29 - p4 + p5 >= 0
 R176: 251 x4,5_29 - p4 + p5 <= 280
 R177: - 40 x4,5_40 - p4 + p5 >= 0
 R178: 251 x4,5_40 - p4 + p5 <= 291
 R179: - 52 x4,5_52 - p4 + p5 >= 0
 R180: 251 x4,5_52 - p4 + p5 <= 303
 R181: - 61 x4,5_61 - p4 + p5 >= 0
 R182: 251 x4,5_61 - p4 + p5 <= 312
 R183: - 69 x4,5_69 - p4 + p5 >= 0
 R184: 251 x4,5_69 - p4 + p5 <= 320
 R185: z0 - z1 >= 0
 R186: z1 - z2 >= 0
 R187: z2 - z3 >= 0
 R188: z3 - z4 >= 0
 R189: z4 - z5 >= 0
Bounds
Binaries
 x0,1_29 x0,1_40 x0,1_52 x0,1_61 x0,1_69 x0,2_29 x0,2_40 x0,2_52 x0,2_61
 x0,2_69 x0,3_29 x0,3_40 x0,3_52 x0,3_61 x0,3_69 x0,4_29 x0,4_40 x0,4_52
 x0,4_61 x0,4_69 x0,5_29 x0,5_40 x0,5_52 x0,5_61 x0,5_69 x1,2_29 x1,2_40
 x1,2_52 x1,2_61 x1,2_69 x1,3_29 x1,3_40 x1,3_52 x1,3_61 x1,3_69 x1,4_29
 x1,4_40 x1,4_52 x1,4_61 x1,4_69 x1,5_29 x1,5_40 x1,5_52 x1,5_61 x1,5_69
 x2,3_29 x2,3_40 x2,3_52 x2,3_61 x2,3_69 x2,4_29 x2,4_40 x2,4_52 x2,4_61
 x2,4_69 x2,5_29 x2,5_40 x2,5_52 x2,5_61 x2,5_69 x3,4_29 x3,4_40 x3,4_52
 x3,4_61 x3,4_69 x3,5_29 x3,5_40 x3,5_52 x3,5_61 x3,5_69 x4,5_29 x4,5_40
 x4,5_52 x4,5_61 x4,5_69 z0 z1 z2 z3 z4 z5
Generals
 p0 p1 p2 p3 p4 p5
End
